
  32    4
  10   10   10   10

   0   0   0   0   0  11 2 3 6 7 8 9 27 28 29 30 31 
  10  10  10  10  10   3 20 13 4 
  10  10  10  10  10  10 26 25 22 20 19 17 14 13 12 11 
   8  10  10  10  10   4 23 22 21 5 
   2  10  10  10  10   5 19 17 15 12 10 
   9  10  10  10  10   3 24 21 15 
   4  10  10  10  10   3 19 17 15 
   5  10  10  10  10   3 18 17 15 
  10  10  10  10  10   2 20 16 
   5  10  10  10  10   1 11 
   8  10  10  10  10   1 16 
   6  10  10  10  10   1 18 
   7  10  10  10  10   1 16 
   5  10  10  10  10   1 15 
   2  10  10  10  10   1 32
   2  10  10  10  10   1 32
   5  10  10  10  10   1 32
   4  10  10  10  10   1 32
   6  10  10  10  10   1 32
   9  10  10  10  10   1 32
   1  10  10  10  10   1 32
   2  10  10  10  10   1 32
   4  10  10  10  10   1 32
   7  10  10  10  10   1 32
   3  10  10  10  10   1 32
   1  10  10  10  10   1 32
   4  10  10  10  10   1 32
   2  10  10  10  10   1 32
   4  10  10  10  10   1 32
   6  10  10  10  10   1 32
   6  10  10  10  10   1 32
   0   0   0   0   0   0 
